NAME : portcgen-17-1
COMMENT : portcgen N=17, seed=1
TYPE : TSP
DIMENSION : 17
EDGE_WEIGHT_TYPE : EUC_2D
NODE_COORD_SECTION
1 -163384 -333368
2 -118421 -138861
3 -53051 44140
4 -18241 -104982
5 -392087 116533
6 -160001 -255538
7 -334735 94423
8 217799 266606
9 273260 -138918
10 -143588 -147843
11 44185 115755
12 -137676 -41301
13 28402 -8699
14 -284843 434346
15 -89495 82208
16 -119514 -1436
17 -41559 15018
